p cnf 20 9
e 1 0
a 2 0
e 3 4 5 0
a 6 7 8 9 0
e 10 0
a 11 0
e 12 0
a 13 14 0
e 15 16 17 0
a 18 0
e 19 0
a 20 0
-14 1 16 -3 18 0
1 -14 17 0
9 14 -12 -2 0
-6 -2 19 -12 17 0
9 -1 11 10 0
-18 -11 2 -16 0
9 10 -17 0
10 -20 6 -5 2 0
-13 20 18 -15 0
